\* Problem: Unknown *\

Maximize
 obj: + xp_0_0 + xp_0_1 + xp_0_2 + xp_0_3 + xp_0_4 + xp_0_5 + xp_0_6
 + xp_0_7 + xp_1_0 + xp_1_1 + xp_2_0 + xp_2_1 + xp_2_2 + xp_2_3 + xp_2_4
 + xp_3_0 + xp_3_1 + xp_3_2 + xp_4_0 + xp_5_0 + xp_5_1 + xp_6_0 + xp_6_1
 + xp_7_0 + xp_7_1 + xp_8_0 + xp_9_0 + xp_10_0 + xp_11_0 + xp_11_1
 + xp_11_2 + xp_11_3 + xp_12_0 + xp_13_0 + xp_13_1 + xp_14_0 + xp_14_1
 + xp_15_0 + xp_15_1 + xp_16_0 + xp_17_0 + xp_17_1 + xp_17_2 + xp_17_3
 + xp_18_0 + xp_18_1 + xp_18_2 + xp_19_0 + xp_19_1 + xp_19_2 + xp_19_3
 + xp_20_0 + xp_20_1 + xp_20_2 + xp_20_3 + xp_21_0 + xp_21_1 + xp_21_2
 + xp_21_3 + xp_21_4 + xp_22_0 + xp_22_1 + xp_22_2 + xp_22_3 + xp_22_4
 + xp_22_5 + xp_22_6 + xp_23_0 + xp_23_1 + xp_23_2 + xp_23_3

Subject To
 r_1: 0 xp_0_0 <= 29.7154017857143
 r_2: + xp_22_4 + xp_18_1 + xp_15_1 + xp_5_1 + xp_2_4
 <= 29.4574468085106
 r_3: + xp_23_2 + xp_21_4 + xp_6_1 <= 30
 r_4: + xp_17_2 + xp_15_0 + xp_0_4 <= 30
 r_5: + xp_18_0 <= 28.4612068965517
 r_6: + xp_18_2 <= 30
 r_7: + xp_20_2 <= 29.7154017857143
 r_8: + xp_22_3 + xp_11_3 + xp_3_2 + xp_2_1 <= 29.4574468085106
 r_9: + xp_11_1 + xp_3_1 <= 30
 r_10: + xp_17_3 + xp_3_0 <= 30
 r_11: + xp_18_2 + xp_11_2 <= 28.4612068965517
 r_12: + xp_11_0 <= 30
 r_13: 0 xp_0_0 <= 30
 r_14: + xp_21_2 + xp_14_0 + xp_0_3 + xp_0_1 <= 29.4574468085106
 r_15: + xp_21_0 + xp_19_3 <= 29.7154017857143
 r_16: + xp_22_2 + xp_21_1 + xp_0_6 + xp_0_5 + xp_0_2
 <= 29.7154017857143
 r_17: + xp_0_0 <= 28.4612068965517
 r_18: + xp_21_4 + xp_4_0 + xp_0_4 <= 29.7154017857143
 r_19: + xp_19_0 <= 29.7154017857143
 r_20: + xp_21_3 + xp_19_2 + xp_19_1 + xp_14_1 + xp_0_7
 <= 29.7154017857143
 r_21: + xp_20_1 <= 29.4574468085106
 r_22: + xp_21_2 + xp_7_1 <= 29.4574468085106
 r_23: + xp_22_6 + xp_22_4 + xp_22_3 + xp_3_2 <= 29.4574468085106
 r_24: + xp_23_3 + xp_15_1 + xp_0_7 + xp_0_3 <= 29.4574468085106
 r_25: 0 xp_0_0 <= 29.4574468085106
 r_26: + xp_18_1 + xp_0_1 <= 28.4612068965517
 r_27: + xp_11_3 <= 29.4574468085106
 r_28: + xp_19_1 <= 29.4574468085106
 r_29: + xp_20_3 <= 29.7154017857143
 r_30: + xp_2_0 <= 29.4574468085106
 r_31: + xp_23_2 + xp_6_1 + xp_3_1 + xp_2_3 <= 30
 r_32: + xp_2_2 <= 30
 r_33: + xp_11_1 + xp_2_4 <= 30
 r_34: + xp_19_3 + xp_2_1 <= 30
 r_35: 0 xp_0_0 <= 29.7154017857143
 r_36: + xp_9_0 <= 29.4574468085106
 r_37: + xp_21_1 + xp_13_1 + xp_0_5 <= 30
 r_38: + xp_1_1 <= 30
 r_39: + xp_17_1 + xp_3_2 + xp_0_6 <= 30
 r_40: + xp_0_2 <= 28.4612068965517
 r_41: + xp_12_0 + xp_2_3 <= 29.4574468085106
 r_42: + xp_21_1 <= 30
 r_43: + xp_16_0 <= 30
 r_44: + xp_23_3 + xp_23_2 + xp_23_1 + xp_22_5 <= 30
 r_45: + xp_15_1 + xp_3_1 <= 30
 r_46: + xp_0_7 + xp_0_5 + xp_0_3 <= 28.4612068965517
 r_47: + xp_22_5 + xp_22_1 + xp_13_1 <= 30
 r_48: + xp_13_0 <= 30
 r_49: 0 xp_0_0 <= 30
 r_50: 0 xp_0_0 <= 28.4612068965517
 r_51: + xp_1_1 <= 30
 r_52: + xp_8_0 <= 30
 r_53: + xp_1_0 <= 30
 r_54: + xp_0_6 + xp_0_4 <= 28.4612068965517
 r_55: 0 xp_0_0 <= 30
 r_56: 0 xp_0_0 <= 30
 r_57: + xp_22_2 <= 28.4612068965517
 r_58: + xp_23_3 + xp_22_6 + xp_5_0 <= 28.4612068965517
 r_59: + xp_22_0 + xp_17_1 <= 28.4612068965517
 r_60: + xp_23_1 + xp_22_5 + xp_6_0 <= 28.4612068965517
 r_61: + xp_23_0 + xp_22_1 <= 28.4612068965517
 r_62: + xp_17_0 <= 28.4612068965517
 r_63: + xp_23_2 + xp_22_4 + xp_17_2 + xp_11_2 + xp_6_1 + xp_5_1
 <= 28.4612068965517
 r_64: + xp_22_3 + xp_17_3 <= 28.4612068965517
 r_65: + xp_20_1 + xp_19_1 + xp_14_1 + xp_7_1 + xp_2_2 + xp_0_7
 <= 29.4574468085106
 r_66: + xp_21_3 + xp_20_3 + xp_7_0 <= 30
 r_67: + xp_20_2 + xp_19_2 + xp_10_0 <= 30
 r_68: + xp_20_0 <= 29.7154017857143

Bounds
 0 <= xp_0_0 <= 28.2141778647243
 0 <= xp_0_1 <= 5.91414998381981
 0 <= xp_0_2 <= 11.584863371983
 0 <= xp_0_3 <= 3.86162112399434
 0 <= xp_0_4 <= 1.18282999676396
 0 <= xp_0_5 <= 3.86162112399434
 0 <= xp_0_6 <= 3.86162112399434
 0 <= xp_0_7 <= 3.86162112399434
 0 <= xp_1_0 <= 19.9458909648106
 0 <= xp_1_1 <= 14.9594182236079
 0 <= xp_2_0 <= 24.2249996717622
 0 <= xp_2_1 <= 3.86162112399434
 0 <= xp_2_2 <= 1.05527292779618
 0 <= xp_2_3 <= 2.11054585559236
 0 <= xp_2_4 <= 3.16581878338854
 0 <= xp_3_0 <= 24.5844857054371
 0 <= xp_3_1 <= 6.69113904693646
 0 <= xp_3_2 <= 0.707379480735531
 0 <= xp_4_0 <= 25.9760440471952
 0 <= xp_5_0 <= 22.2651806118816
 0 <= xp_5_1 <= 3.7108634353136
 0 <= xp_6_0 <= 16.6988854589112
 0 <= xp_6_1 <= 6.67955418356448
 0 <= xp_7_0 <= 16.0030985647899
 0 <= xp_7_1 <= 6.40123942591596
 0 <= xp_8_0 <= 20.1314341365763
 0 <= xp_9_0 <= 18.6702816589215
 0 <= xp_10_0 <= 18.6702816589215
 0 <= xp_11_0 <= 27.0313478679604
 0 <= xp_11_1 <= 16.8844286306769
 0 <= xp_11_2 <= 5.29956525869386
 0 <= xp_11_3 <= 9.88015845003796
 0 <= xp_12_0 <= 17.5338297318568
 0 <= xp_13_0 <= 14.6115247765473
 0 <= xp_13_1 <= 2.43525412942455
 0 <= xp_14_0 <= 13.915737882426
 0 <= xp_14_1 <= 2.319289647071
 0 <= xp_15_0 <= 13.7765805036017
 0 <= xp_15_1 <= 2.29609675060029
 0 <= xp_16_0 <= 15.4232761530221
 0 <= xp_17_0 <= 28.3417349336921
 0 <= xp_17_1 <= 11.6196334085835
 0 <= xp_17_2 <= 2.58600409486304
 0 <= xp_17_3 <= 2.58600409486304
 0 <= xp_18_0 <= 21.6157949571862
 0 <= xp_18_1 <= 8.47699979842338
 0 <= xp_18_2 <= 13.0923784728524
 0 <= xp_19_0 <= 29.2694585157628
 0 <= xp_19_1 <= 2.23811064780239
 0 <= xp_19_2 <= 2.23811064780239
 0 <= xp_19_3 <= 8.95244259120956
 0 <= xp_20_0 <= 27.4140190748637
 0 <= xp_20_1 <= 8.10591345489202
 0 <= xp_20_2 <= 4.24429233089768
 0 <= xp_20_3 <= 2.12214616544884
 0 <= xp_21_0 <= 21.0475574087904
 0 <= xp_21_1 <= 7.5956697325364
 0 <= xp_21_2 <= 1.86702430427103
 0 <= xp_21_3 <= 7.72324224798868
 0 <= xp_21_4 <= 1.86702430427103
 0 <= xp_22_0 <= 14.8550540511109
 0 <= xp_22_1 <= 5.49671646355827
 0 <= xp_22_2 <= 1.63509533956393
 0 <= xp_22_3 <= 9.35833758755261
 0 <= xp_22_4 <= 1.63509533956393
 0 <= xp_22_5 <= 1.63509533956393
 0 <= xp_22_6 <= 3.86162112399434
 0 <= xp_23_0 <= 22.5782962990996
 0 <= xp_23_1 <= 10.9934329271165
 0 <= xp_23_2 <= 3.27019067912786
 0 <= xp_23_3 <= 1.63509533956393

End
